# Node Net
9991   1
9970   1
9902   1
2400   2
2501   2
3300   2
7400   3
7000   3
 14   3
1801   4
201   4
 79   4
6201   5
5301   5
4901   5
 38   6
1300   6
 22   6
 97   7
9200   7
100   7
 76   8
9300   8
 40   9
6501   9
2701  10
9500  10
  5  11
6500  11
1500  12
1100  12
4900  13
9995  13
 45  14
7301  14
